This is Ipopt version 3.12.13, running with linear solver ma57.

Number of nonzeros in equality constraint Jacobian...:        0
Number of nonzeros in inequality constraint Jacobian.:    15144
Number of nonzeros in Lagrangian Hessian.............:       21

Total number of variables............................:        6
                     variables with only lower bounds:        0
                variables with lower and upper bounds:        6
                     variables with only upper bounds:        0
Total number of equality constraints.................:        0
Total number of inequality constraints...............:     2524
        inequality constraints with only lower bounds:        0
   inequality constraints with lower and upper bounds:        0
        inequality constraints with only upper bounds:     2524

iter    objective    inf_pr   inf_du lg(mu)  ||d||  lg(rg) alpha_du alpha_pr  ls
   0  3.6320416e-01 3.50e-03 7.52e+00   0.0 0.00e+00    -  0.00e+00 0.00e+00   0
   1  3.6286503e-01 3.50e-03 2.00e+00  -5.4 1.35e-02    -  9.25e-01 7.33e-01h  1
   2  3.6270144e-01 3.50e-03 4.26e+01  -2.6 1.61e-01    -  6.15e-01 2.75e-02h  1
   3  3.6270141e-01 3.50e-03 1.61e+05  -2.6 1.41e-01    -  9.90e-01 2.83e-04h  1
   4r 3.6270141e-01 3.50e-03 1.00e+03  -2.5 0.00e+00    -  0.00e+00 3.54e-07R  4
   5r 3.6270831e-01 3.50e-03 9.97e+02  -2.7 9.21e-01    -  1.00e+00 2.21e-03f  1
   6r 3.6304148e-01 3.50e-03 3.19e+02  -3.4 1.18e-02    -  1.00e+00 6.80e-01f  1
   7r 3.6514973e-01 3.50e-03 2.22e+02  -3.0 1.60e-01    -  1.00e+00 3.91e-01f  1
   8r 3.6533246e-01 3.50e-03 7.08e+01  -4.0 6.33e-03    -  1.00e+00 7.45e-01f  1
   9r 3.6424753e-01 3.50e-03 1.43e+01  -3.7 9.57e-03    -  1.00e+00 9.15e-01f  1
iter    objective    inf_pr   inf_du lg(mu)  ||d||  lg(rg) alpha_du alpha_pr  ls
  10r 3.6492516e-01 3.50e-03 4.88e-04  -4.3 1.36e-02    -  1.00e+00 1.00e+00f  1
  11r 3.6685324e-01 3.50e-03 5.59e-03  -5.6 4.00e-02    -  9.78e-01 1.00e+00f  1
  12r 3.6691894e-01 3.50e-03 4.81e-05  -6.4 1.28e-02    -  1.00e+00 1.00e+00f  1
  13r 3.6458784e-01 3.50e-03 1.61e-05  -7.3 2.99e-02    -  9.91e-01 1.00e+00h  1

Number of Iterations....: 13

                                   (scaled)                 (unscaled)
Objective...............:   3.6312490765509303e-01    3.6312490765509303e-01
Dual infeasibility......:   8.4496752214117371e-02    8.4496752214117371e-02
Constraint violation....:   3.4991985299699041e-03    3.4991985299699041e-03
Complementarity.........:   1.5418329894162577e-08    1.5418329894162577e-08
Overall NLP error.......:   8.4496752214117371e-02    8.4496752214117371e-02


Number of objective function evaluations             = 19
Number of objective gradient evaluations             = 6
Number of equality constraint evaluations            = 0
Number of inequality constraint evaluations          = 19
Number of equality constraint Jacobian evaluations   = 0
Number of inequality constraint Jacobian evaluations = 16
Number of Lagrangian Hessian evaluations             = 14
Total CPU secs in IPOPT (w/o function evaluations)   =      0.040
Total CPU secs in NLP function evaluations           =      0.013

EXIT: Converged to a point of local infeasibility. Problem may be infeasible.
